p cnf 100 353
-5 -3 0
-5 4 0
3 -4 5 0
-2 5 -6 0
2 -5 -6 0
-2 -5 6 0
2 5 6 0
-1 6 -7 0
1 -6 -7 0
-1 -6 7 0
1 6 7 0
-10 8 0
-10 9 0
-8 -9 10 0
-10 -11 -12 0
10 11 -12 0
-10 11 12 0
10 -11 12 0
-3 -12 -13 0
3 12 -13 0
-3 12 13 0
3 -12 13 0
14 7 0
14 -13 0
-7 13 -14 0
-15 -9 -16 0
15 9 -16 0
-15 9 16 0
15 -9 16 0
17 -10 0
17 16 0
10 -16 -17 0
-18 17 0
-18 4 0
-17 -4 18 0
19 8 0
19 -5 0
-8 5 -19 0
20 -19 0
20 6 0
19 -6 -20 0
21 -9 -22 0
-21 9 -22 0
21 9 22 0
-21 -9 22 0
-23 20 0
-23 22 0
-20 -22 23 0
24 -2 0
24 -12 0
2 12 -24 0
-24 -12 -25 0
24 12 -25 0
-24 12 25 0
24 -12 25 0
26 -23 0
26 -25 0
23 25 -26 0
-27 -18 0
-27 26 0
18 -26 27 0
-14 27 -28 0
14 -27 -28 0
-14 -27 28 0
14 27 28 0
29 16 0
29 -16 0
-30 -21 0
-30 -12 0
21 12 30 0
29 -30 -31 0
-29 30 -31 0
29 30 31 0
-29 -30 31 0
33 32 0
33 -21 0
-32 21 -33 0
-11 -2 -35 0
11 2 -35 0
-11 2 35 0
11 -2 35 0
36 -34 0
36 35 0
34 -35 -36 0
-33 36 -37 0
33 -36 -37 0
-33 -36 37 0
33 36 37 0
1 38 -39 0
-1 -38 -39 0
1 -38 39 0
-1 38 39 0
-40 -24 0
-40 39 0
24 -39 40 0
3 15 -41 0
-3 -15 -41 0
3 -15 41 0
-3 15 41 0
-42 -40 0
-42 41 0
40 -41 42 0
-3 38 -43 0
3 -38 -43 0
-3 -38 43 0
3 38 43 0
44 -21 0
44 -43 0
21 43 -44 0
-45 44 0
-45 34 0
-44 -34 45 0
-45 -38 -46 0
45 38 -46 0
-45 38 46 0
45 -38 46 0
36 -29 -47 0
-36 29 -47 0
36 29 47 0
-36 -29 47 0
46 -47 -48 0
-46 47 -48 0
46 47 48 0
-46 -47 48 0
49 42 0
49 -48 0
-42 48 -49 0
-37 49 -50 0
37 -49 -50 0
-37 -49 50 0
37 49 50 0
-51 -31 0
-51 50 0
31 -50 51 0
52 34 0
52 30 0
-34 -30 -52 0
-52 53 -54 0
52 -53 -54 0
-52 -53 54 0
52 53 54 0
15 -6 -55 0
-15 6 -55 0
15 6 55 0
-15 -6 55 0
56 -38 0
56 43 0
38 -43 -56 0
-57 -7 0
-57 -3 0
7 3 57 0
58 -56 0
58 57 0
56 -57 -58 0
-59 58 0
-59 -15 0
-58 15 59 0
59 52 -60 0
-59 -52 -60 0
59 -52 60 0
-59 52 60 0
-13 60 -61 0
13 -60 -61 0
-13 -60 61 0
13 60 61 0
-62 -56 0
-62 13 0
56 -13 62 0
63 -61 0
63 -62 0
61 62 -63 0
-64 63 0
-64 62 0
-63 -62 64 0
5 -35 -65 0
-5 35 -65 0
5 35 65 0
-5 -35 65 0
38 2 -66 0
-38 -2 -66 0
38 -2 66 0
-38 2 66 0
6 32 -67 0
-6 -32 -67 0
6 -32 67 0
-6 32 67 0
68 -67 0
68 -22 0
67 22 -68 0
69 -66 0
69 68 0
66 -68 -69 0
-70 -9 0
-70 -38 0
9 38 70 0
9 70 -71 0
-9 -70 -71 0
9 -70 71 0
-9 70 71 0
-72 -23 0
-72 -71 0
23 71 72 0
73 69 0
73 -72 0
-69 72 -73 0
74 65 0
74 73 0
-65 -73 -74 0
75 64 0
75 -74 0
-64 74 -75 0
76 -35 0
76 2 0
35 -2 -76 0
-77 -76 0
-77 -45 0
76 45 77 0
-21 -56 -78 0
21 56 -78 0
-21 56 78 0
21 -56 78 0
-80 78 0
-80 79 0
-78 -79 80 0
81 21 0
81 -61 0
-21 61 -81 0
-82 80 0
-82 -81 0
-80 81 82 0
-83 36 0
-83 -8 0
-36 8 83 0
84 -53 0
84 83 0
53 -83 -84 0
85 57 0
85 -84 0
-57 84 -85 0
-82 -85 -86 0
82 85 -86 0
-82 85 86 0
82 -85 86 0
87 77 0
87 86 0
-77 -86 -87 0
-32 63 -88 0
32 -63 -88 0
-32 -63 88 0
32 63 88 0
89 -20 0
89 13 0
20 -13 -89 0
88 89 -90 0
-88 -89 -90 0
88 -89 90 0
-88 89 90 0
3 4 -91 0
-3 -4 -91 0
3 -4 91 0
-3 4 91 0
13 1 -92 0
-13 -1 -92 0
13 -1 92 0
-13 1 92 0
93 -91 0
93 92 0
91 -92 -93 0
-94 -90 0
-94 93 0
90 -93 94 0
-87 94 -95 0
87 -94 -95 0
-87 -94 95 0
87 94 95 0
96 75 0
96 95 0
-75 -95 -96 0
97 55 0
97 96 0
-55 -96 -97 0
-54 97 -98 0
54 -97 -98 0
-54 -97 98 0
54 97 98 0
-51 98 -99 0
51 -98 -99 0
-51 -98 99 0
51 98 99 0
28 -99 -100 0
-28 99 -100 0
28 99 100 0
-28 -99 100 0
96 67 -11 20 0
-46 -81 0
-38 85 66 -50 0
-45 92 0
-75 65 -81 3 0
26 94 0
-29 -30 -23 58 -13 0
-52 85 36 0
-42 -53 -50 -86 -82 0
35 52 -63 0
61 36 32 31 -46 0
-70 -48 88 0
-93 4 54 24 -37 0
53 -21 16 -90 25 0
18 67 -37 0
-67 -87 57 0
94 -18 -3 -9 0
2 17 76 0
68 -6 -53 74 0
40 -90 -46 83 -12 -3 0
-56 -34 -42 5 -7 0
61 47 -43 -38 0
-81 -100 83 0
98 42 -24 -73 33 0
39 -76 -9 0
32 18 0
-98 89 77 38 92 0
-47 52 -29 0
-52 6 40 -23 0
-15 -49 69 0
15 27 31 29 47 0
61 -39 -29 0
-45 -58 0
71 52 64 92 -100 -86 0
-20 79 -78 15 -5 0
70 -92 -72 87 81 0
39 -73 0
-48 -38 64 10 0
-62 -74 84 6 -95 0
4 -48 45 -84 31 -90 0
-51 34 49 -25 77 90 0
30 51 85 -75 0
-83 -27 -34 8 70 0
2 85 90 80 37 0
-40 45 -92 62 66 0
40 -97 0
-26 -20 -78 0
13 21 -87 37 -16 -73 0
52 84 78 18 91 0
-85 -55 -38 41 0
55 56 -76 -39 22 0
-40 -72 0
97 -29 -59 0
44 -6 0
27 -84 0
44 86 81 -6 0
-15 7 0
-58 64 0
33 44 23 18 -37 0
100 0
